problem_generation/data/GISP/train/er_n=65_m=1242_p=0.60_SET2_setparam=100.00_alpha=0.50_940.lp
maximize
OBJ:100x0 + 100x1 + 100x2 + 100x3 + 100x4 + 100x5 + 100x6 + 100x7 + 100x8 + 100x9 + 100x10 + 100x11 + 100x12 + 100x13 + 100x14 + 100x15 + 100x16 + 100x17 + 100x18 + 100x19 + 100x20 + 100x21 + 100x22 + 100x23 + 100x24 + 100x25 + 100x26 + 100x27 + 100x28 + 100x29 + 100x30 + 100x31 + 100x32 + 100x33 + 100x34 + 100x35 + 100x36 + 100x37 + 100x38 + 100x39 + 100x40 + 100x41 + 100x42 + 100x43 + 100x44 + 100x45 + 100x46 + 100x47 + 100x48 + 100x49 + 100x50 + 100x51 + 100x52 + 100x53 + 100x54 + 100x55 + 100x56 + 100x57 + 100x58 + 100x59 + 100x60 + 100x61 + 100x62 + 100x63 + 100x64 - y36_53 - y59_64 - y15_39 - y26_39 - y7_35 - y29_41 - y48_54 - y21_37 - y0_14 - y6_48 - y40_50 - y11_23 - y40_59 - y21_55 - y21_64 - y33_38 - y41_51 - y2_32 - y10_45 - y33_47 - y3_6 - y51_64 - y2_59 - y3_24 - y32_60 - y3_33 - y14_33 - y14_42 - y7_12 - y15_25 - y7_21 - y47_57 - y17_53 - y28_62 - y29_36 - y40_45 - y6_52 - y29_54 - y21_50 - y21_59 - y10_31 - y10_40 - y2_45 - y3_10 - y32_55 - y43_64 - y35_60 - y14_37 - y55_56 - y7_16 - y36_52 - y59_63 - y9_53 - y6_29 - y29_31 - y9_62 - y21_27 - y6_38 - y29_40 - y48_53 - y21_36 - y6_47 - y29_49 - y21_45 - y6_56 - y10_17 - y62_64 - y2_22 - y10_44 - y25_42 - y3_5 - y32_41 - y43_50 - y22_27 - y13_46 - y35_46 - y3_23 - y14_23 - y32_59 - y1_53 - y13_55 - y35_64 - y36_38 - y17_34 - y28_34 - y7_11 - y36_47 - y28_43 - y5_59 - y17_61 - y29_44 - y21_40 - y21_49 - y10_21 - y31_53 - y2_26 - y32_36 - y24_32 - y32_45 - y43_45 - y35_41 - y32_54 - y16_37 - y1_48 - y24_50 - y13_59 - y24_59 - y5_27 - y17_29 - y17_38 - y47_51 - y6_10 - y5_54 - y6_19 - y28_56 - y21_26 - y27_60 - y61_62 - y21_35 - y39_43 - y20_48 - y2_21 - y31_57 - y4_49 - y3_4 - y32_40 - y35_36 - y43_49 - y1_43 - y24_45 - y32_58 - y1_52 - y1_61 - y5_22 - y46_60 - y28_33 - y9_29 - y17_42 - y5_49 - y6_14 - y5_58 - y42_44 - y27_55 - y6_32 - y19_60 - y30_60 - y0_56 - y10_11 - y39_47 - y31_52 - y31_61 - y54_63 - y12_57 - y13_22 - y13_31 - y32_44 - y16_27 - y1_38 - y24_40 - y43_53 - y16_36 - y13_49 - y5_8 - y17_28 - y28_37 - y9_33 - y6_9 - y50_52 - y8_46 - y30_46 - y42_48 - y19_55 - y30_55 - y0_51 - y20_29 - y0_60 - y23_34 - y20_47 - y4_30 - y23_43 - y20_56 - y1_15 - y23_61 - y4_57 - y34_58 - y1_42 - y13_44 - y16_40 - y16_49 - y46_50 - y15_53 - y49_55 - y27_36 - y8_32 - y30_41 - y27_54 - y11_37 - y50_56 - y30_59 - y42_61 - y11_64 - y31_42 - y31_51 - y1_10 - y53_57 - y45_62 - y56_62 - y37_58 - y1_46 - y38_41 - y5_16 - y15_48 - y26_57 - y38_59 - y7_53 - y8_27 - y30_36 - y19_45 - y27_58 - y0_41 - y30_54 - y11_50 - y19_63 - y60_64 - y39_41 - y20_37 - y12_33 - y23_33 - y12_42 - y1_5 - y4_38 - y1_14 - y13_16 - y34_48 - y53_61 - y45_57 - y56_57 - y1_32 - y16_30 - y3_60 - y26_34 - y38_45 - y15_52 - y38_54 - y18_48 - y15_61 - y26_61 - y18_57 - y27_35 - y30_31 - y0_27 - y19_49 - y41_55 - y52_55 - y4_15 - y41_64 - y23_37 - y4_33 - y22_41 - y34_43 - y34_52 - y34_61 - y45_61 - y56_61 - y3_64 - y14_64 - y26_29 - y26_38 - y38_40 - y7_34 - y38_49 - y26_56 - y18_52 - y11_22 - y29_58 - y11_31 - y8_44 - y30_44 - y0_40 - y44_46 - y12_23 - y41_59 - y3_32 - y45_47 - y3_41 - y22_54 - y34_56 - y3_50 - y14_50 - y3_59 - y18_29 - y15_42 - y7_38 - y18_38 - y18_47 - y7_56 - y8_21 - y48_57 - y0_17 - y11_17 - y8_30 - y29_53 - y0_26 - y63_64 - y21_58 - y0_35 - y4_5 - y33_41 - y52_54 - y25_37 - y10_48 - y44_50 - y41_63 - y2_44 - y52_63 - y33_59 - y2_62 - y14_27 - y34_51 - y22_58 - y14_54 - y15_19 - y7_15 - y26_28 - y55_64 - y36_60 - y26_37 - y8_16 - y40_48 - y48_61 - y21_44 - y0_21 - y11_21 - y21_62 - y41_49 - y33_45 - y44_45 - y52_58 - y2_39 - y25_59 - y3_22 - y14_22 - y37_42 - y36_46 - y55_59 - y7_19 - y47_55 - y47_64 - y18_37 - y29_43 - y6_50 - y40_52 - y21_57 - y10_29 - y2_25 - y10_38 - y10_47 - y14_17 - y3_26 - y3_35 - y14_44 - y7_14 - y36_50 - y47_50 - y28_46 - y9_42 - y28_64 - y6_27 - y9_60 - y0_2 - y40_47 - y21_52 - y6_63 - y21_61 - y10_24 - y25_40 - y2_56 - y13_53 - y1_60 - y13_62 - y35_62 - y17_32 - y47_54 - y17_50 - y28_59 - y6_31 - y29_33 - y29_42 - y21_38 - y21_47 - y6_58 - y10_19 - y39_64 - y2_24 - y10_37 - y14_16 - y13_57 - y35_57 - y16_62 - y17_27 - y36_40 - y28_36 - y47_49 - y17_45 - y6_8 - y28_45 - y36_58 - y5_52 - y17_54 - y28_54 - y9_50 - y6_35 - y29_37 - y6_44 - y39_50 - y20_46 - y12_51 - y23_60 - y13_34 - y32_47 - y43_47 - y24_52 - y35_61 - y17_31 - y36_44 - y17_40 - y17_49 - y9_54 - y50_55 - y50_64 - y6_39 - y19_58 - y2_14 - y31_50 - y2_23 - y31_59 - y23_55 - y32_33 - y32_42 - y16_25 - y24_38 - y43_51 - y1_63 - y46_62 - y38_58 - y5_33 - y17_35 - y28_44 - y6_16 - y21_23 - y50_59 - y30_53 - y30_62 - y10_13 - y23_32 - y2_9 - y2_18 - y4_37 - y20_54 - y20_63 - y4_46 - y12_59 - y1_22 - y53_60 - y16_20 - y1_31 - y13_42 - y35_42 - y16_38 - y35_51 - y5_10 - y17_21 - y5_28 - y8_39 - y30_39 - y61_63 - y11_44 - y19_57 - y20_31 - y23_27 - y4_23 - y23_36 - y4_32 - y1_8 - y12_54 - y13_19 - y4_50 - y24_28 - y53_64 - y4_59 - y1_35 - y1_44 - y5_14 - y5_23 - y57_61 - y9_21 - y38_57 - y5_32 - y15_64 - y26_64 - y18_60 - y27_47 - y27_56 - y0_39 - y19_52 - y42_54 - y11_48 - y20_26 - y4_18 - y4_45 - y45_46 - y13_23 - y16_19 - y45_55 - y1_30 - y45_64 - y5_9 - y46_47 - y38_43 - y5_18 - y46_56 - y38_52 - y38_61 - y7_55 - y11_43 - y8_56 - y0_52 - y11_52 - y12_17 - y20_30 - y0_61 - y41_62 - y4_31 - y1_16 - y1_25 - y37_46 - y56_59 - y14_62 - y15_27 - y37_64 - y5_13 - y15_45 - y26_45 - y38_47 - y7_41 - y18_41 - y38_56 - y7_50 - y15_63 - y0_11 - y19_24 - y0_29 - y11_38 - y19_51 - y0_47 - y12_21 - y33_53 - y12_30 - y25_58 - y22_34 - y34_36 - y1_20 - y14_39 - y3_48 - y45_63 - y56_63 - y3_57 - y15_22 - y37_59 - y18_27 - y38_42 - y26_49 - y26_58 - y7_54 - y18_63 - y48_64 - y8_37 - y19_37 - y11_42 - y33_39 - y12_16 - y52_61 - y25_53 - y22_29 - y1_6 - y45_58 - y3_52 - y14_52 - y15_26 - y15_44 - y29_46 - y40_46 - y40_64 - y33_34 - y41_47 - y33_52 - y33_61 - y44_61 - y25_57 - y3_20 - y14_20 - y3_29 - y22_42 - y34_44 - y14_38 - y37_40 - y22_51 - y7_8
 Subject to
C1: x0+x1 <=1 
C2: x0+x2-y0_2 <=1 
C3: x0+x3 <=1 
C4: x0+x4 <=1 
C5: x0+x7 <=1 
C6: x0+x10 <=1 
C7: x0+x11-y0_11 <=1 
C8: x0+x13 <=1 
C9: x0+x14-y0_14 <=1 
C10: x0+x15 <=1 
C11: x0+x17-y0_17 <=1 
C12: x0+x18 <=1 
C13: x0+x19 <=1 
C14: x0+x21-y0_21 <=1 
C15: x0+x22 <=1 
C16: x0+x24 <=1 
C17: x0+x26-y0_26 <=1 
C18: x0+x27-y0_27 <=1 
C19: x0+x28 <=1 
C20: x0+x29-y0_29 <=1 
C21: x0+x30 <=1 
C22: x0+x31 <=1 
C23: x0+x35-y0_35 <=1 
C24: x0+x36 <=1 
C25: x0+x37 <=1 
C26: x0+x38 <=1 
C27: x0+x39-y0_39 <=1 
C28: x0+x40-y0_40 <=1 
C29: x0+x41-y0_41 <=1 
C30: x0+x46 <=1 
C31: x0+x47-y0_47 <=1 
C32: x0+x51-y0_51 <=1 
C33: x0+x52-y0_52 <=1 
C34: x0+x53 <=1 
C35: x0+x55 <=1 
C36: x0+x56-y0_56 <=1 
C37: x0+x57 <=1 
C38: x0+x58 <=1 
C39: x0+x60-y0_60 <=1 
C40: x0+x61-y0_61 <=1 
C41: x0+x62 <=1 
C42: x0+x64 <=1 
C43: x1+x5-y1_5 <=1 
C44: x1+x6-y1_6 <=1 
C45: x1+x8-y1_8 <=1 
C46: x1+x10-y1_10 <=1 
C47: x1+x12 <=1 
C48: x1+x13 <=1 
C49: x1+x14-y1_14 <=1 
C50: x1+x15-y1_15 <=1 
C51: x1+x16-y1_16 <=1 
C52: x1+x17 <=1 
C53: x1+x18 <=1 
C54: x1+x20-y1_20 <=1 
C55: x1+x22-y1_22 <=1 
C56: x1+x25-y1_25 <=1 
C57: x1+x27 <=1 
C58: x1+x29 <=1 
C59: x1+x30-y1_30 <=1 
C60: x1+x31-y1_31 <=1 
C61: x1+x32-y1_32 <=1 
C62: x1+x35-y1_35 <=1 
C63: x1+x37 <=1 
C64: x1+x38-y1_38 <=1 
C65: x1+x40 <=1 
C66: x1+x42-y1_42 <=1 
C67: x1+x43-y1_43 <=1 
C68: x1+x44-y1_44 <=1 
C69: x1+x46-y1_46 <=1 
C70: x1+x48-y1_48 <=1 
C71: x1+x49 <=1 
C72: x1+x50 <=1 
C73: x1+x52-y1_52 <=1 
C74: x1+x53-y1_53 <=1 
C75: x1+x55 <=1 
C76: x1+x56 <=1 
C77: x1+x57 <=1 
C78: x1+x60-y1_60 <=1 
C79: x1+x61-y1_61 <=1 
C80: x1+x62 <=1 
C81: x1+x63-y1_63 <=1 
C82: x2+x6 <=1 
C83: x2+x7 <=1 
C84: x2+x8 <=1 
C85: x2+x9-y2_9 <=1 
C86: x2+x14-y2_14 <=1 
C87: x2+x15 <=1 
C88: x2+x18-y2_18 <=1 
C89: x2+x19 <=1 
C90: x2+x21-y2_21 <=1 
C91: x2+x22-y2_22 <=1 
C92: x2+x23-y2_23 <=1 
C93: x2+x24-y2_24 <=1 
C94: x2+x25-y2_25 <=1 
C95: x2+x26-y2_26 <=1 
C96: x2+x31 <=1 
C97: x2+x32-y2_32 <=1 
C98: x2+x34 <=1 
C99: x2+x36 <=1 
C100: x2+x39-y2_39 <=1 
C101: x2+x44-y2_44 <=1 
C102: x2+x45-y2_45 <=1 
C103: x2+x46 <=1 
C104: x2+x47 <=1 
C105: x2+x48 <=1 
C106: x2+x50 <=1 
C107: x2+x51 <=1 
C108: x2+x53 <=1 
C109: x2+x56-y2_56 <=1 
C110: x2+x58 <=1 
C111: x2+x59-y2_59 <=1 
C112: x2+x60 <=1 
C113: x2+x62-y2_62 <=1 
C114: x2+x64 <=1 
C115: x3+x4-y3_4 <=1 
C116: x3+x5-y3_5 <=1 
C117: x3+x6-y3_6 <=1 
C118: x3+x7 <=1 
C119: x3+x10-y3_10 <=1 
C120: x3+x12 <=1 
C121: x3+x13 <=1 
C122: x3+x14 <=1 
C123: x3+x15 <=1 
C124: x3+x19 <=1 
C125: x3+x20-y3_20 <=1 
C126: x3+x22-y3_22 <=1 
C127: x3+x23-y3_23 <=1 
C128: x3+x24-y3_24 <=1 
C129: x3+x25 <=1 
C130: x3+x26-y3_26 <=1 
C131: x3+x27 <=1 
C132: x3+x29-y3_29 <=1 
C133: x3+x32-y3_32 <=1 
C134: x3+x33-y3_33 <=1 
C135: x3+x34 <=1 
C136: x3+x35-y3_35 <=1 
C137: x3+x39 <=1 
C138: x3+x41-y3_41 <=1 
C139: x3+x43 <=1 
C140: x3+x46 <=1 
C141: x3+x48-y3_48 <=1 
C142: x3+x50-y3_50 <=1 
C143: x3+x51 <=1 
C144: x3+x52-y3_52 <=1 
C145: x3+x54 <=1 
C146: x3+x55 <=1 
C147: x3+x56 <=1 
C148: x3+x57-y3_57 <=1 
C149: x3+x58 <=1 
C150: x3+x59-y3_59 <=1 
C151: x3+x60-y3_60 <=1 
C152: x3+x61 <=1 
C153: x3+x62 <=1 
C154: x3+x64-y3_64 <=1 
C155: x4+x5-y4_5 <=1 
C156: x4+x6 <=1 
C157: x4+x7 <=1 
C158: x4+x8 <=1 
C159: x4+x9 <=1 
C160: x4+x13 <=1 
C161: x4+x14 <=1 
C162: x4+x15-y4_15 <=1 
C163: x4+x17 <=1 
C164: x4+x18-y4_18 <=1 
C165: x4+x20 <=1 
C166: x4+x22 <=1 
C167: x4+x23-y4_23 <=1 
C168: x4+x26 <=1 
C169: x4+x27 <=1 
C170: x4+x28 <=1 
C171: x4+x30-y4_30 <=1 
C172: x4+x31-y4_31 <=1 
C173: x4+x32-y4_32 <=1 
C174: x4+x33-y4_33 <=1 
C175: x4+x34 <=1 
C176: x4+x35 <=1 
C177: x4+x36 <=1 
C178: x4+x37-y4_37 <=1 
C179: x4+x38-y4_38 <=1 
C180: x4+x39 <=1 
C181: x4+x40 <=1 
C182: x4+x42 <=1 
C183: x4+x45-y4_45 <=1 
C184: x4+x46-y4_46 <=1 
C185: x4+x47 <=1 
C186: x4+x49-y4_49 <=1 
C187: x4+x50-y4_50 <=1 
C188: x4+x51 <=1 
C189: x4+x52 <=1 
C190: x4+x55 <=1 
C191: x4+x56 <=1 
C192: x4+x57-y4_57 <=1 
C193: x4+x58 <=1 
C194: x4+x59-y4_59 <=1 
C195: x4+x60 <=1 
C196: x4+x64 <=1 
C197: x5+x6 <=1 
C198: x5+x8-y5_8 <=1 
C199: x5+x9-y5_9 <=1 
C200: x5+x10-y5_10 <=1 
C201: x5+x13-y5_13 <=1 
C202: x5+x14-y5_14 <=1 
C203: x5+x15 <=1 
C204: x5+x16-y5_16 <=1 
C205: x5+x17 <=1 
C206: x5+x18-y5_18 <=1 
C207: x5+x19 <=1 
C208: x5+x22-y5_22 <=1 
C209: x5+x23-y5_23 <=1 
C210: x5+x25 <=1 
C211: x5+x27-y5_27 <=1 
C212: x5+x28-y5_28 <=1 
C213: x5+x29 <=1 
C214: x5+x32-y5_32 <=1 
C215: x5+x33-y5_33 <=1 
C216: x5+x34 <=1 
C217: x5+x35 <=1 
C218: x5+x36 <=1 
C219: x5+x38 <=1 
C220: x5+x39 <=1 
C221: x5+x40 <=1 
C222: x5+x43 <=1 
C223: x5+x49-y5_49 <=1 
C224: x5+x51 <=1 
C225: x5+x52-y5_52 <=1 
C226: x5+x53 <=1 
C227: x5+x54-y5_54 <=1 
C228: x5+x55 <=1 
C229: x5+x58-y5_58 <=1 
C230: x5+x59-y5_59 <=1 
C231: x5+x62 <=1 
C232: x5+x63 <=1 
C233: x5+x64 <=1 
C234: x6+x7 <=1 
C235: x6+x8-y6_8 <=1 
C236: x6+x9-y6_9 <=1 
C237: x6+x10-y6_10 <=1 
C238: x6+x11 <=1 
C239: x6+x13 <=1 
C240: x6+x14-y6_14 <=1 
C241: x6+x16-y6_16 <=1 
C242: x6+x17 <=1 
C243: x6+x19-y6_19 <=1 
C244: x6+x20 <=1 
C245: x6+x23 <=1 
C246: x6+x24 <=1 
C247: x6+x27-y6_27 <=1 
C248: x6+x29-y6_29 <=1 
C249: x6+x31-y6_31 <=1 
C250: x6+x32-y6_32 <=1 
C251: x6+x35-y6_35 <=1 
C252: x6+x36 <=1 
C253: x6+x37 <=1 
C254: x6+x38-y6_38 <=1 
C255: x6+x39-y6_39 <=1 
C256: x6+x40 <=1 
C257: x6+x44-y6_44 <=1 
C258: x6+x45 <=1 
C259: x6+x47-y6_47 <=1 
C260: x6+x48-y6_48 <=1 
C261: x6+x50-y6_50 <=1 
C262: x6+x52-y6_52 <=1 
C263: x6+x53 <=1 
C264: x6+x56-y6_56 <=1 
C265: x6+x57 <=1 
C266: x6+x58-y6_58 <=1 
C267: x6+x59 <=1 
C268: x6+x60 <=1 
C269: x6+x63-y6_63 <=1 
C270: x7+x8-y7_8 <=1 
C271: x7+x9 <=1 
C272: x7+x10 <=1 
C273: x7+x11-y7_11 <=1 
C274: x7+x12-y7_12 <=1 
C275: x7+x14-y7_14 <=1 
C276: x7+x15-y7_15 <=1 
C277: x7+x16-y7_16 <=1 
C278: x7+x18 <=1 
C279: x7+x19-y7_19 <=1 
C280: x7+x21-y7_21 <=1 
C281: x7+x23 <=1 
C282: x7+x27 <=1 
C283: x7+x28 <=1 
C284: x7+x29 <=1 
C285: x7+x30 <=1 
C286: x7+x31 <=1 
C287: x7+x33 <=1 
C288: x7+x34-y7_34 <=1 
C289: x7+x35-y7_35 <=1 
C290: x7+x38-y7_38 <=1 
C291: x7+x41-y7_41 <=1 
C292: x7+x43 <=1 
C293: x7+x44 <=1 
C294: x7+x50-y7_50 <=1 
C295: x7+x52 <=1 
C296: x7+x53-y7_53 <=1 
C297: x7+x54-y7_54 <=1 
C298: x7+x55-y7_55 <=1 
C299: x7+x56-y7_56 <=1 
C300: x7+x57 <=1 
C301: x7+x63 <=1 
C302: x8+x9 <=1 
C303: x8+x10 <=1 
C304: x8+x11 <=1 
C305: x8+x12 <=1 
C306: x8+x13 <=1 
C307: x8+x16-y8_16 <=1 
C308: x8+x21-y8_21 <=1 
C309: x8+x23 <=1 
C310: x8+x26 <=1 
C311: x8+x27-y8_27 <=1 
C312: x8+x29 <=1 
C313: x8+x30-y8_30 <=1 
C314: x8+x32-y8_32 <=1 
C315: x8+x33 <=1 
C316: x8+x34 <=1 
C317: x8+x35 <=1 
C318: x8+x36 <=1 
C319: x8+x37-y8_37 <=1 
C320: x8+x39-y8_39 <=1 
C321: x8+x44-y8_44 <=1 
C322: x8+x45 <=1 
C323: x8+x46-y8_46 <=1 
C324: x8+x47 <=1 
C325: x8+x48 <=1 
C326: x8+x50 <=1 
C327: x8+x54 <=1 
C328: x8+x55 <=1 
C329: x8+x56-y8_56 <=1 
C330: x8+x57 <=1 
C331: x8+x58 <=1 
C332: x8+x61 <=1 
C333: x8+x64 <=1 
C334: x9+x13 <=1 
C335: x9+x14 <=1 
C336: x9+x16 <=1 
C337: x9+x21-y9_21 <=1 
C338: x9+x24 <=1 
C339: x9+x26 <=1 
C340: x9+x27 <=1 
C341: x9+x29-y9_29 <=1 
C342: x9+x30 <=1 
C343: x9+x31 <=1 
C344: x9+x33-y9_33 <=1 
C345: x9+x35 <=1 
C346: x9+x39 <=1 
C347: x9+x41 <=1 
C348: x9+x42-y9_42 <=1 
C349: x9+x43 <=1 
C350: x9+x44 <=1 
C351: x9+x45 <=1 
C352: x9+x49 <=1 
C353: x9+x50-y9_50 <=1 
C354: x9+x51 <=1 
C355: x9+x52 <=1 
C356: x9+x53-y9_53 <=1 
C357: x9+x54-y9_54 <=1 
C358: x9+x55 <=1 
C359: x9+x56 <=1 
C360: x9+x59 <=1 
C361: x9+x60-y9_60 <=1 
C362: x9+x62-y9_62 <=1 
C363: x10+x11-y10_11 <=1 
C364: x10+x13-y10_13 <=1 
C365: x10+x14 <=1 
C366: x10+x17-y10_17 <=1 
C367: x10+x18 <=1 
C368: x10+x19-y10_19 <=1 
C369: x10+x20 <=1 
C370: x10+x21-y10_21 <=1 
C371: x10+x24-y10_24 <=1 
C372: x10+x26 <=1 
C373: x10+x27 <=1 
C374: x10+x29-y10_29 <=1 
C375: x10+x30 <=1 
C376: x10+x31-y10_31 <=1 
C377: x10+x32 <=1 
C378: x10+x33 <=1 
C379: x10+x34 <=1 
C380: x10+x35 <=1 
C381: x10+x36 <=1 
C382: x10+x37-y10_37 <=1 
C383: x10+x38-y10_38 <=1 
C384: x10+x40-y10_40 <=1 
C385: x10+x42 <=1 
C386: x10+x44-y10_44 <=1 
C387: x10+x45-y10_45 <=1 
C388: x10+x47-y10_47 <=1 
C389: x10+x48-y10_48 <=1 
C390: x10+x49 <=1 
C391: x10+x50 <=1 
C392: x10+x51 <=1 
C393: x10+x52 <=1 
C394: x10+x53 <=1 
C395: x10+x54 <=1 
C396: x10+x55 <=1 
C397: x10+x56 <=1 
C398: x10+x57 <=1 
C399: x10+x60 <=1 
C400: x10+x61 <=1 
C401: x10+x64 <=1 
C402: x11+x12 <=1 
C403: x11+x13 <=1 
C404: x11+x16 <=1 
C405: x11+x17-y11_17 <=1 
C406: x11+x18 <=1 
C407: x11+x21-y11_21 <=1 
C408: x11+x22-y11_22 <=1 
C409: x11+x23-y11_23 <=1 
C410: x11+x24 <=1 
C411: x11+x27 <=1 
C412: x11+x29 <=1 
C413: x11+x30 <=1 
C414: x11+x31-y11_31 <=1 
C415: x11+x33 <=1 
C416: x11+x34 <=1 
C417: x11+x36 <=1 
C418: x11+x37-y11_37 <=1 
C419: x11+x38-y11_38 <=1 
C420: x11+x39 <=1 
C421: x11+x41 <=1 
C422: x11+x42-y11_42 <=1 
C423: x11+x43-y11_43 <=1 
C424: x11+x44-y11_44 <=1 
C425: x11+x48-y11_48 <=1 
C426: x11+x49 <=1 
C427: x11+x50-y11_50 <=1 
C428: x11+x51 <=1 
C429: x11+x52-y11_52 <=1 
C430: x11+x53 <=1 
C431: x11+x55 <=1 
C432: x11+x56 <=1 
C433: x11+x57 <=1 
C434: x11+x61 <=1 
C435: x11+x62 <=1 
C436: x11+x64-y11_64 <=1 
C437: x12+x14 <=1 
C438: x12+x16-y12_16 <=1 
C439: x12+x17-y12_17 <=1 
C440: x12+x20 <=1 
C441: x12+x21-y12_21 <=1 
C442: x12+x22 <=1 
C443: x12+x23-y12_23 <=1 
C444: x12+x24 <=1 
C445: x12+x27 <=1 
C446: x12+x30-y12_30 <=1 
C447: x12+x31 <=1 
C448: x12+x32 <=1 
C449: x12+x33-y12_33 <=1 
C450: x12+x34 <=1 
C451: x12+x36 <=1 
C452: x12+x39 <=1 
C453: x12+x40 <=1 
C454: x12+x42-y12_42 <=1 
C455: x12+x43 <=1 
C456: x12+x46 <=1 
C457: x12+x47 <=1 
C458: x12+x51-y12_51 <=1 
C459: x12+x53 <=1 
C460: x12+x54-y12_54 <=1 
C461: x12+x56 <=1 
C462: x12+x57-y12_57 <=1 
C463: x12+x59-y12_59 <=1 
C464: x12+x60 <=1 
C465: x12+x62 <=1 
C466: x12+x64 <=1 
C467: x13+x16-y13_16 <=1 
C468: x13+x19-y13_19 <=1 
C469: x13+x22-y13_22 <=1 
C470: x13+x23-y13_23 <=1 
C471: x13+x29 <=1 
C472: x13+x31-y13_31 <=1 
C473: x13+x32 <=1 
C474: x13+x33 <=1 
C475: x13+x34-y13_34 <=1 
C476: x13+x41 <=1 
C477: x13+x42-y13_42 <=1 
C478: x13+x43 <=1 
C479: x13+x44-y13_44 <=1 
C480: x13+x46-y13_46 <=1 
C481: x13+x47 <=1 
C482: x13+x48 <=1 
C483: x13+x49-y13_49 <=1 
C484: x13+x52 <=1 
C485: x13+x53-y13_53 <=1 
C486: x13+x54 <=1 
C487: x13+x55-y13_55 <=1 
C488: x13+x56 <=1 
C489: x13+x57-y13_57 <=1 
C490: x13+x58 <=1 
C491: x13+x59-y13_59 <=1 
C492: x13+x62-y13_62 <=1 
C493: x13+x63 <=1 
C494: x14+x15 <=1 
C495: x14+x16-y14_16 <=1 
C496: x14+x17-y14_17 <=1 
C497: x14+x19 <=1 
C498: x14+x20-y14_20 <=1 
C499: x14+x22-y14_22 <=1 
C500: x14+x23-y14_23 <=1 
C501: x14+x26 <=1 
C502: x14+x27-y14_27 <=1 
C503: x14+x29 <=1 
C504: x14+x31 <=1 
C505: x14+x32 <=1 
C506: x14+x33-y14_33 <=1 
C507: x14+x35 <=1 
C508: x14+x37-y14_37 <=1 
C509: x14+x38-y14_38 <=1 
C510: x14+x39-y14_39 <=1 
C511: x14+x42-y14_42 <=1 
C512: x14+x43 <=1 
C513: x14+x44-y14_44 <=1 
C514: x14+x45 <=1 
C515: x14+x50-y14_50 <=1 
C516: x14+x52-y14_52 <=1 
C517: x14+x53 <=1 
C518: x14+x54-y14_54 <=1 
C519: x14+x55 <=1 
C520: x14+x62-y14_62 <=1 
C521: x14+x64-y14_64 <=1 
C522: x15+x16 <=1 
C523: x15+x17 <=1 
C524: x15+x18 <=1 
C525: x15+x19-y15_19 <=1 
C526: x15+x20 <=1 
C527: x15+x21 <=1 
C528: x15+x22-y15_22 <=1 
C529: x15+x24 <=1 
C530: x15+x25-y15_25 <=1 
C531: x15+x26-y15_26 <=1 
C532: x15+x27-y15_27 <=1 
C533: x15+x28 <=1 
C534: x15+x30 <=1 
C535: x15+x31 <=1 
C536: x15+x35 <=1 
C537: x15+x37 <=1 
C538: x15+x39-y15_39 <=1 
C539: x15+x40 <=1 
C540: x15+x42-y15_42 <=1 
C541: x15+x43 <=1 
C542: x15+x44-y15_44 <=1 
C543: x15+x45-y15_45 <=1 
C544: x15+x48-y15_48 <=1 
C545: x15+x49 <=1 
C546: x15+x50 <=1 
C547: x15+x51 <=1 
C548: x15+x52-y15_52 <=1 
C549: x15+x53-y15_53 <=1 
C550: x15+x56 <=1 
C551: x15+x57 <=1 
C552: x15+x60 <=1 
C553: x15+x61-y15_61 <=1 
C554: x15+x63-y15_63 <=1 
C555: x15+x64-y15_64 <=1 
C556: x16+x19-y16_19 <=1 
C557: x16+x20-y16_20 <=1 
C558: x16+x21 <=1 
C559: x16+x22 <=1 
C560: x16+x25-y16_25 <=1 
C561: x16+x27-y16_27 <=1 
C562: x16+x30-y16_30 <=1 
C563: x16+x34 <=1 
C564: x16+x36-y16_36 <=1 
C565: x16+x37-y16_37 <=1 
C566: x16+x38-y16_38 <=1 
C567: x16+x40-y16_40 <=1 
C568: x16+x45 <=1 
C569: x16+x46 <=1 
C570: x16+x49-y16_49 <=1 
C571: x16+x51 <=1 
C572: x16+x52 <=1 
C573: x16+x53 <=1 
C574: x16+x54 <=1 
C575: x16+x55 <=1 
C576: x16+x62-y16_62 <=1 
C577: x16+x63 <=1 
C578: x16+x64 <=1 
C579: x17+x19 <=1 
C580: x17+x21-y17_21 <=1 
C581: x17+x27-y17_27 <=1 
C582: x17+x28-y17_28 <=1 
C583: x17+x29-y17_29 <=1 
C584: x17+x30 <=1 
C585: x17+x31-y17_31 <=1 
C586: x17+x32-y17_32 <=1 
C587: x17+x34-y17_34 <=1 
C588: x17+x35-y17_35 <=1 
C589: x17+x36 <=1 
C590: x17+x38-y17_38 <=1 
C591: x17+x40-y17_40 <=1 
C592: x17+x41 <=1 
C593: x17+x42-y17_42 <=1 
C594: x17+x43 <=1 
C595: x17+x45-y17_45 <=1 
C596: x17+x47 <=1 
C597: x17+x49-y17_49 <=1 
C598: x17+x50-y17_50 <=1 
C599: x17+x51 <=1 
C600: x17+x52 <=1 
C601: x17+x53-y17_53 <=1 
C602: x17+x54-y17_54 <=1 
C603: x17+x56 <=1 
C604: x17+x57 <=1 
C605: x17+x61-y17_61 <=1 
C606: x18+x23 <=1 
C607: x18+x24 <=1 
C608: x18+x27-y18_27 <=1 
C609: x18+x28 <=1 
C610: x18+x29-y18_29 <=1 
C611: x18+x32 <=1 
C612: x18+x37-y18_37 <=1 
C613: x18+x38-y18_38 <=1 
C614: x18+x41-y18_41 <=1 
C615: x18+x44 <=1 
C616: x18+x47-y18_47 <=1 
C617: x18+x48-y18_48 <=1 
C618: x18+x49 <=1 
C619: x18+x50 <=1 
C620: x18+x51 <=1 
C621: x18+x52-y18_52 <=1 
C622: x18+x57-y18_57 <=1 
C623: x18+x58 <=1 
C624: x18+x59 <=1 
C625: x18+x60-y18_60 <=1 
C626: x18+x63-y18_63 <=1 
C627: x19+x20 <=1 
C628: x19+x22 <=1 
C629: x19+x23 <=1 
C630: x19+x24-y19_24 <=1 
C631: x19+x26 <=1 
C632: x19+x28 <=1 
C633: x19+x29 <=1 
C634: x19+x33 <=1 
C635: x19+x37-y19_37 <=1 
C636: x19+x42 <=1 
C637: x19+x44 <=1 
C638: x19+x45-y19_45 <=1 
C639: x19+x47 <=1 
C640: x19+x49-y19_49 <=1 
C641: x19+x50 <=1 
C642: x19+x51-y19_51 <=1 
C643: x19+x52-y19_52 <=1 
C644: x19+x54 <=1 
C645: x19+x55-y19_55 <=1 
C646: x19+x56 <=1 
C647: x19+x57-y19_57 <=1 
C648: x19+x58-y19_58 <=1 
C649: x19+x60-y19_60 <=1 
C650: x19+x62 <=1 
C651: x19+x63-y19_63 <=1 
C652: x20+x22 <=1 
C653: x20+x23 <=1 
C654: x20+x25 <=1 
C655: x20+x26-y20_26 <=1 
C656: x20+x29-y20_29 <=1 
C657: x20+x30-y20_30 <=1 
C658: x20+x31-y20_31 <=1 
C659: x20+x33 <=1 
C660: x20+x35 <=1 
C661: x20+x36 <=1 
C662: x20+x37-y20_37 <=1 
C663: x20+x38 <=1 
C664: x20+x39 <=1 
C665: x20+x40 <=1 
C666: x20+x41 <=1 
C667: x20+x42 <=1 
C668: x20+x46-y20_46 <=1 
C669: x20+x47-y20_47 <=1 
C670: x20+x48-y20_48 <=1 
C671: x20+x50 <=1 
C672: x20+x51 <=1 
C673: x20+x52 <=1 
C674: x20+x54-y20_54 <=1 
C675: x20+x56-y20_56 <=1 
C676: x20+x57 <=1 
C677: x20+x58 <=1 
C678: x20+x62 <=1 
C679: x20+x63-y20_63 <=1 
C680: x21+x23-y21_23 <=1 
C681: x21+x26-y21_26 <=1 
C682: x21+x27-y21_27 <=1 
C683: x21+x28 <=1 
C684: x21+x30 <=1 
C685: x21+x31 <=1 
C686: x21+x32 <=1 
C687: x21+x35-y21_35 <=1 
C688: x21+x36-y21_36 <=1 
C689: x21+x37-y21_37 <=1 
C690: x21+x38-y21_38 <=1 
C691: x21+x40-y21_40 <=1 
C692: x21+x41 <=1 
C693: x21+x44-y21_44 <=1 
C694: x21+x45-y21_45 <=1 
C695: x21+x47-y21_47 <=1 
C696: x21+x48 <=1 
C697: x21+x49-y21_49 <=1 
C698: x21+x50-y21_50 <=1 
C699: x21+x52-y21_52 <=1 
C700: x21+x53 <=1 
C701: x21+x55-y21_55 <=1 
C702: x21+x57-y21_57 <=1 
C703: x21+x58-y21_58 <=1 
C704: x21+x59-y21_59 <=1 
C705: x21+x61-y21_61 <=1 
C706: x21+x62-y21_62 <=1 
C707: x21+x64-y21_64 <=1 
C708: x22+x23 <=1 
C709: x22+x27-y22_27 <=1 
C710: x22+x29-y22_29 <=1 
C711: x22+x34-y22_34 <=1 
C712: x22+x36 <=1 
C713: x22+x39 <=1 
C714: x22+x40 <=1 
C715: x22+x41-y22_41 <=1 
C716: x22+x42-y22_42 <=1 
C717: x22+x49 <=1 
C718: x22+x51-y22_51 <=1 
C719: x22+x54-y22_54 <=1 
C720: x22+x55 <=1 
C721: x22+x57 <=1 
C722: x22+x58-y22_58 <=1 
C723: x22+x60 <=1 
C724: x22+x61 <=1 
C725: x22+x62 <=1 
C726: x23+x24 <=1 
C727: x23+x27-y23_27 <=1 
C728: x23+x32-y23_32 <=1 
C729: x23+x33-y23_33 <=1 
C730: x23+x34-y23_34 <=1 
C731: x23+x35 <=1 
C732: x23+x36-y23_36 <=1 
C733: x23+x37-y23_37 <=1 
C734: x23+x40 <=1 
C735: x23+x41 <=1 
C736: x23+x42 <=1 
C737: x23+x43-y23_43 <=1 
C738: x23+x45 <=1 
C739: x23+x46 <=1 
C740: x23+x47 <=1 
C741: x23+x51 <=1 
C742: x23+x52 <=1 
C743: x23+x54 <=1 
C744: x23+x55-y23_55 <=1 
C745: x23+x60-y23_60 <=1 
C746: x23+x61-y23_61 <=1 
C747: x23+x62 <=1 
C748: x23+x63 <=1 
C749: x23+x64 <=1 
C750: x24+x27 <=1 
C751: x24+x28-y24_28 <=1 
C752: x24+x29 <=1 
C753: x24+x32-y24_32 <=1 
C754: x24+x33 <=1 
C755: x24+x34 <=1 
C756: x24+x35 <=1 
C757: x24+x38-y24_38 <=1 
C758: x24+x39 <=1 
C759: x24+x40-y24_40 <=1 
C760: x24+x42 <=1 
C761: x24+x44 <=1 
C762: x24+x45-y24_45 <=1 
C763: x24+x46 <=1 
C764: x24+x47 <=1 
C765: x24+x50-y24_50 <=1 
C766: x24+x51 <=1 
C767: x24+x52-y24_52 <=1 
C768: x24+x57 <=1 
C769: x24+x59-y24_59 <=1 
C770: x25+x30 <=1 
C771: x25+x33 <=1 
C772: x25+x36 <=1 
C773: x25+x37-y25_37 <=1 
C774: x25+x40-y25_40 <=1 
C775: x25+x41 <=1 
C776: x25+x42-y25_42 <=1 
C777: x25+x45 <=1 
C778: x25+x47 <=1 
C779: x25+x50 <=1 
C780: x25+x52 <=1 
C781: x25+x53-y25_53 <=1 
C782: x25+x55 <=1 
C783: x25+x57-y25_57 <=1 
C784: x25+x58-y25_58 <=1 
C785: x25+x59-y25_59 <=1 
C786: x25+x62 <=1 
C787: x25+x64 <=1 
C788: x26+x27 <=1 
C789: x26+x28-y26_28 <=1 
C790: x26+x29-y26_29 <=1 
C791: x26+x30 <=1 
C792: x26+x32 <=1 
C793: x26+x34-y26_34 <=1 
C794: x26+x35 <=1 
C795: x26+x37-y26_37 <=1 
C796: x26+x38-y26_38 <=1 
C797: x26+x39-y26_39 <=1 
C798: x26+x42 <=1 
C799: x26+x45-y26_45 <=1 
C800: x26+x46 <=1 
C801: x26+x48 <=1 
C802: x26+x49-y26_49 <=1 
C803: x26+x56-y26_56 <=1 
C804: x26+x57-y26_57 <=1 
C805: x26+x58-y26_58 <=1 
C806: x26+x59 <=1 
C807: x26+x61-y26_61 <=1 
C808: x26+x63 <=1 
C809: x26+x64-y26_64 <=1 
C810: x27+x30 <=1 
C811: x27+x31 <=1 
C812: x27+x32 <=1 
C813: x27+x33 <=1 
C814: x27+x34 <=1 
C815: x27+x35-y27_35 <=1 
C816: x27+x36-y27_36 <=1 
C817: x27+x43 <=1 
C818: x27+x46 <=1 
C819: x27+x47-y27_47 <=1 
C820: x27+x49 <=1 
C821: x27+x50 <=1 
C822: x27+x51 <=1 
C823: x27+x54-y27_54 <=1 
C824: x27+x55-y27_55 <=1 
C825: x27+x56-y27_56 <=1 
C826: x27+x58-y27_58 <=1 
C827: x27+x59 <=1 
C828: x27+x60-y27_60 <=1 
C829: x27+x64 <=1 
C830: x28+x30 <=1 
C831: x28+x31 <=1 
C832: x28+x32 <=1 
C833: x28+x33-y28_33 <=1 
C834: x28+x34-y28_34 <=1 
C835: x28+x36-y28_36 <=1 
C836: x28+x37-y28_37 <=1 
C837: x28+x38 <=1 
C838: x28+x39 <=1 
C839: x28+x40 <=1 
C840: x28+x41 <=1 
C841: x28+x42 <=1 
C842: x28+x43-y28_43 <=1 
C843: x28+x44-y28_44 <=1 
C844: x28+x45-y28_45 <=1 
C845: x28+x46-y28_46 <=1 
C846: x28+x47 <=1 
C847: x28+x49 <=1 
C848: x28+x50 <=1 
C849: x28+x54-y28_54 <=1 
C850: x28+x55 <=1 
C851: x28+x56-y28_56 <=1 
C852: x28+x58 <=1 
C853: x28+x59-y28_59 <=1 
C854: x28+x61 <=1 
C855: x28+x62-y28_62 <=1 
C856: x28+x63 <=1 
C857: x28+x64-y28_64 <=1 
C858: x29+x30 <=1 
C859: x29+x31-y29_31 <=1 
C860: x29+x33-y29_33 <=1 
C861: x29+x36-y29_36 <=1 
C862: x29+x37-y29_37 <=1 
C863: x29+x40-y29_40 <=1 
C864: x29+x41-y29_41 <=1 
C865: x29+x42-y29_42 <=1 
C866: x29+x43-y29_43 <=1 
C867: x29+x44-y29_44 <=1 
C868: x29+x45 <=1 
C869: x29+x46-y29_46 <=1 
C870: x29+x48 <=1 
C871: x29+x49-y29_49 <=1 
C872: x29+x50 <=1 
C873: x29+x51 <=1 
C874: x29+x53-y29_53 <=1 
C875: x29+x54-y29_54 <=1 
C876: x29+x55 <=1 
C877: x29+x56 <=1 
C878: x29+x58-y29_58 <=1 
C879: x29+x60 <=1 
C880: x29+x61 <=1 
C881: x29+x63 <=1 
C882: x30+x31-y30_31 <=1 
C883: x30+x33 <=1 
C884: x30+x34 <=1 
C885: x30+x36-y30_36 <=1 
C886: x30+x39-y30_39 <=1 
C887: x30+x40 <=1 
C888: x30+x41-y30_41 <=1 
C889: x30+x42 <=1 
C890: x30+x44-y30_44 <=1 
C891: x30+x45 <=1 
C892: x30+x46-y30_46 <=1 
C893: x30+x47 <=1 
C894: x30+x53-y30_53 <=1 
C895: x30+x54-y30_54 <=1 
C896: x30+x55-y30_55 <=1 
C897: x30+x56 <=1 
C898: x30+x59-y30_59 <=1 
C899: x30+x60-y30_60 <=1 
C900: x30+x62-y30_62 <=1 
C901: x31+x32 <=1 
C902: x31+x36 <=1 
C903: x31+x41 <=1 
C904: x31+x42-y31_42 <=1 
C905: x31+x43 <=1 
C906: x31+x45 <=1 
C907: x31+x46 <=1 
C908: x31+x47 <=1 
C909: x31+x48 <=1 
C910: x31+x50-y31_50 <=1 
C911: x31+x51-y31_51 <=1 
C912: x31+x52-y31_52 <=1 
C913: x31+x53-y31_53 <=1 
C914: x31+x55 <=1 
C915: x31+x57-y31_57 <=1 
C916: x31+x59-y31_59 <=1 
C917: x31+x61-y31_61 <=1 
C918: x31+x64 <=1 
C919: x32+x33-y32_33 <=1 
C920: x32+x34 <=1 
C921: x32+x35 <=1 
C922: x32+x36-y32_36 <=1 
C923: x32+x40-y32_40 <=1 
C924: x32+x41-y32_41 <=1 
C925: x32+x42-y32_42 <=1 
C926: x32+x44-y32_44 <=1 
C927: x32+x45-y32_45 <=1 
C928: x32+x47-y32_47 <=1 
C929: x32+x49 <=1 
C930: x32+x54-y32_54 <=1 
C931: x32+x55-y32_55 <=1 
C932: x32+x57 <=1 
C933: x32+x58-y32_58 <=1 
C934: x32+x59-y32_59 <=1 
C935: x32+x60-y32_60 <=1 
C936: x32+x63 <=1 
C937: x33+x34-y33_34 <=1 
C938: x33+x35 <=1 
C939: x33+x36 <=1 
C940: x33+x38-y33_38 <=1 
C941: x33+x39-y33_39 <=1 
C942: x33+x40 <=1 
C943: x33+x41-y33_41 <=1 
C944: x33+x42 <=1 
C945: x33+x45-y33_45 <=1 
C946: x33+x46 <=1 
C947: x33+x47-y33_47 <=1 
C948: x33+x48 <=1 
C949: x33+x49 <=1 
C950: x33+x50 <=1 
C951: x33+x51 <=1 
C952: x33+x52-y33_52 <=1 
C953: x33+x53-y33_53 <=1 
C954: x33+x55 <=1 
C955: x33+x57 <=1 
C956: x33+x58 <=1 
C957: x33+x59-y33_59 <=1 
C958: x33+x61-y33_61 <=1 
C959: x33+x62 <=1 
C960: x33+x64 <=1 
C961: x34+x35 <=1 
C962: x34+x36-y34_36 <=1 
C963: x34+x40 <=1 
C964: x34+x43-y34_43 <=1 
C965: x34+x44-y34_44 <=1 
C966: x34+x45 <=1 
C967: x34+x46 <=1 
C968: x34+x47 <=1 
C969: x34+x48-y34_48 <=1 
C970: x34+x49 <=1 
C971: x34+x50 <=1 
C972: x34+x51-y34_51 <=1 
C973: x34+x52-y34_52 <=1 
C974: x34+x53 <=1 
C975: x34+x55 <=1 
C976: x34+x56-y34_56 <=1 
C977: x34+x57 <=1 
C978: x34+x58-y34_58 <=1 
C979: x34+x61-y34_61 <=1 
C980: x34+x63 <=1 
C981: x34+x64 <=1 
C982: x35+x36-y35_36 <=1 
C983: x35+x41-y35_41 <=1 
C984: x35+x42-y35_42 <=1 
C985: x35+x46-y35_46 <=1 
C986: x35+x50 <=1 
C987: x35+x51-y35_51 <=1 
C988: x35+x53 <=1 
C989: x35+x56 <=1 
C990: x35+x57-y35_57 <=1 
C991: x35+x60-y35_60 <=1 
C992: x35+x61-y35_61 <=1 
C993: x35+x62-y35_62 <=1 
C994: x35+x64-y35_64 <=1 
C995: x36+x38-y36_38 <=1 
C996: x36+x40-y36_40 <=1 
C997: x36+x41 <=1 
C998: x36+x42 <=1 
C999: x36+x43 <=1 
C1000: x36+x44-y36_44 <=1 
C1001: x36+x46-y36_46 <=1 
C1002: x36+x47-y36_47 <=1 
C1003: x36+x49 <=1 
C1004: x36+x50-y36_50 <=1 
C1005: x36+x51 <=1 
C1006: x36+x52-y36_52 <=1 
C1007: x36+x53-y36_53 <=1 
C1008: x36+x55 <=1 
C1009: x36+x56 <=1 
C1010: x36+x58-y36_58 <=1 
C1011: x36+x60-y36_60 <=1 
C1012: x36+x62 <=1 
C1013: x37+x40-y37_40 <=1 
C1014: x37+x42-y37_42 <=1 
C1015: x37+x44 <=1 
C1016: x37+x45 <=1 
C1017: x37+x46-y37_46 <=1 
C1018: x37+x49 <=1 
C1019: x37+x54 <=1 
C1020: x37+x57 <=1 
C1021: x37+x58-y37_58 <=1 
C1022: x37+x59-y37_59 <=1 
C1023: x37+x61 <=1 
C1024: x37+x64-y37_64 <=1 
C1025: x38+x40-y38_40 <=1 
C1026: x38+x41-y38_41 <=1 
C1027: x38+x42-y38_42 <=1 
C1028: x38+x43-y38_43 <=1 
C1029: x38+x45-y38_45 <=1 
C1030: x38+x46 <=1 
C1031: x38+x47-y38_47 <=1 
C1032: x38+x48 <=1 
C1033: x38+x49-y38_49 <=1 
C1034: x38+x50 <=1 
C1035: x38+x52-y38_52 <=1 
C1036: x38+x54-y38_54 <=1 
C1037: x38+x56-y38_56 <=1 
C1038: x38+x57-y38_57 <=1 
C1039: x38+x58-y38_58 <=1 
C1040: x38+x59-y38_59 <=1 
C1041: x38+x60 <=1 
C1042: x38+x61-y38_61 <=1 
C1043: x38+x62 <=1 
C1044: x38+x63 <=1 
C1045: x38+x64 <=1 
C1046: x39+x41-y39_41 <=1 
C1047: x39+x43-y39_43 <=1 
C1048: x39+x46 <=1 
C1049: x39+x47-y39_47 <=1 
C1050: x39+x49 <=1 
C1051: x39+x50-y39_50 <=1 
C1052: x39+x52 <=1 
C1053: x39+x55 <=1 
C1054: x39+x56 <=1 
C1055: x39+x57 <=1 
C1056: x39+x62 <=1 
C1057: x39+x64-y39_64 <=1 
C1058: x40+x44 <=1 
C1059: x40+x45-y40_45 <=1 
C1060: x40+x46-y40_46 <=1 
C1061: x40+x47-y40_47 <=1 
C1062: x40+x48-y40_48 <=1 
C1063: x40+x49 <=1 
C1064: x40+x50-y40_50 <=1 
C1065: x40+x51 <=1 
C1066: x40+x52-y40_52 <=1 
C1067: x40+x53 <=1 
C1068: x40+x59-y40_59 <=1 
C1069: x40+x60 <=1 
C1070: x40+x61 <=1 
C1071: x40+x64-y40_64 <=1 
C1072: x41+x42 <=1 
C1073: x41+x43 <=1 
C1074: x41+x47-y41_47 <=1 
C1075: x41+x49-y41_49 <=1 
C1076: x41+x50 <=1 
C1077: x41+x51-y41_51 <=1 
C1078: x41+x52 <=1 
C1079: x41+x55-y41_55 <=1 
C1080: x41+x56 <=1 
C1081: x41+x57 <=1 
C1082: x41+x59-y41_59 <=1 
C1083: x41+x61 <=1 
C1084: x41+x62-y41_62 <=1 
C1085: x41+x63-y41_63 <=1 
C1086: x41+x64-y41_64 <=1 
C1087: x42+x44-y42_44 <=1 
C1088: x42+x46 <=1 
C1089: x42+x47 <=1 
C1090: x42+x48-y42_48 <=1 
C1091: x42+x49 <=1 
C1092: x42+x50 <=1 
C1093: x42+x51 <=1 
C1094: x42+x53 <=1 
C1095: x42+x54-y42_54 <=1 
C1096: x42+x56 <=1 
C1097: x42+x57 <=1 
C1098: x42+x60 <=1 
C1099: x42+x61-y42_61 <=1 
C1100: x42+x62 <=1 
C1101: x42+x63 <=1 
C1102: x43+x45-y43_45 <=1 
C1103: x43+x47-y43_47 <=1 
C1104: x43+x49-y43_49 <=1 
C1105: x43+x50-y43_50 <=1 
C1106: x43+x51-y43_51 <=1 
C1107: x43+x53-y43_53 <=1 
C1108: x43+x55 <=1 
C1109: x43+x56 <=1 
C1110: x43+x58 <=1 
C1111: x43+x60 <=1 
C1112: x43+x61 <=1 
C1113: x43+x63 <=1 
C1114: x43+x64-y43_64 <=1 
C1115: x44+x45-y44_45 <=1 
C1116: x44+x46-y44_46 <=1 
C1117: x44+x47 <=1 
C1118: x44+x48 <=1 
C1119: x44+x49 <=1 
C1120: x44+x50-y44_50 <=1 
C1121: x44+x54 <=1 
C1122: x44+x55 <=1 
C1123: x44+x57 <=1 
C1124: x44+x61-y44_61 <=1 
C1125: x44+x62 <=1 
C1126: x45+x46-y45_46 <=1 
C1127: x45+x47-y45_47 <=1 
C1128: x45+x48 <=1 
C1129: x45+x49 <=1 
C1130: x45+x52 <=1 
C1131: x45+x55-y45_55 <=1 
C1132: x45+x57-y45_57 <=1 
C1133: x45+x58-y45_58 <=1 
C1134: x45+x59 <=1 
C1135: x45+x60 <=1 
C1136: x45+x61-y45_61 <=1 
C1137: x45+x62-y45_62 <=1 
C1138: x45+x63-y45_63 <=1 
C1139: x45+x64-y45_64 <=1 
C1140: x46+x47-y46_47 <=1 
C1141: x46+x48 <=1 
C1142: x46+x49 <=1 
C1143: x46+x50-y46_50 <=1 
C1144: x46+x51 <=1 
C1145: x46+x55 <=1 
C1146: x46+x56-y46_56 <=1 
C1147: x46+x57 <=1 
C1148: x46+x60-y46_60 <=1 
C1149: x46+x62-y46_62 <=1 
C1150: x46+x63 <=1 
C1151: x47+x49-y47_49 <=1 
C1152: x47+x50-y47_50 <=1 
C1153: x47+x51-y47_51 <=1 
C1154: x47+x52 <=1 
C1155: x47+x54-y47_54 <=1 
C1156: x47+x55-y47_55 <=1 
C1157: x47+x56 <=1 
C1158: x47+x57-y47_57 <=1 
C1159: x47+x59 <=1 
C1160: x47+x61 <=1 
C1161: x47+x64-y47_64 <=1 
C1162: x48+x51 <=1 
C1163: x48+x53-y48_53 <=1 
C1164: x48+x54-y48_54 <=1 
C1165: x48+x57-y48_57 <=1 
C1166: x48+x61-y48_61 <=1 
C1167: x48+x64-y48_64 <=1 
C1168: x49+x50 <=1 
C1169: x49+x53 <=1 
C1170: x49+x54 <=1 
C1171: x49+x55-y49_55 <=1 
C1172: x49+x59 <=1 
C1173: x50+x52-y50_52 <=1 
C1174: x50+x54 <=1 
C1175: x50+x55-y50_55 <=1 
C1176: x50+x56-y50_56 <=1 
C1177: x50+x59-y50_59 <=1 
C1178: x50+x62 <=1 
C1179: x50+x64-y50_64 <=1 
C1180: x51+x53 <=1 
C1181: x51+x55 <=1 
C1182: x51+x57 <=1 
C1183: x51+x58 <=1 
C1184: x51+x60 <=1 
C1185: x51+x61 <=1 
C1186: x51+x62 <=1 
C1187: x51+x63 <=1 
C1188: x51+x64-y51_64 <=1 
C1189: x52+x54-y52_54 <=1 
C1190: x52+x55-y52_55 <=1 
C1191: x52+x56 <=1 
C1192: x52+x57 <=1 
C1193: x52+x58-y52_58 <=1 
C1194: x52+x59 <=1 
C1195: x52+x60 <=1 
C1196: x52+x61-y52_61 <=1 
C1197: x52+x62 <=1 
C1198: x52+x63-y52_63 <=1 
C1199: x52+x64 <=1 
C1200: x53+x56 <=1 
C1201: x53+x57-y53_57 <=1 
C1202: x53+x58 <=1 
C1203: x53+x60-y53_60 <=1 
C1204: x53+x61-y53_61 <=1 
C1205: x53+x63 <=1 
C1206: x53+x64-y53_64 <=1 
C1207: x54+x55 <=1 
C1208: x54+x62 <=1 
C1209: x54+x63-y54_63 <=1 
C1210: x54+x64 <=1 
C1211: x55+x56-y55_56 <=1 
C1212: x55+x57 <=1 
C1213: x55+x59-y55_59 <=1 
C1214: x55+x63 <=1 
C1215: x55+x64-y55_64 <=1 
C1216: x56+x57-y56_57 <=1 
C1217: x56+x59-y56_59 <=1 
C1218: x56+x61-y56_61 <=1 
C1219: x56+x62-y56_62 <=1 
C1220: x56+x63-y56_63 <=1 
C1221: x56+x64 <=1 
C1222: x57+x58 <=1 
C1223: x57+x60 <=1 
C1224: x57+x61-y57_61 <=1 
C1225: x57+x62 <=1 
C1226: x57+x64 <=1 
C1227: x58+x59 <=1 
C1228: x58+x61 <=1 
C1229: x58+x62 <=1 
C1230: x58+x64 <=1 
C1231: x59+x60 <=1 
C1232: x59+x61 <=1 
C1233: x59+x62 <=1 
C1234: x59+x63-y59_63 <=1 
C1235: x59+x64-y59_64 <=1 
C1236: x60+x64-y60_64 <=1 
C1237: x61+x62-y61_62 <=1 
C1238: x61+x63-y61_63 <=1 
C1239: x61+x64 <=1 
C1240: x62+x63 <=1 
C1241: x62+x64-y62_64 <=1 
C1242: x63+x64-y63_64 <=1 

binary
x0
x1
x2
x3
x4
x5
x6
x7
x8
x9
x10
x11
x12
x13
x14
x15
x16
x17
x18
x19
x20
x21
x22
x23
x24
x25
x26
x27
x28
x29
x30
x31
x32
x33
x34
x35
x36
x37
x38
x39
x40
x41
x42
x43
x44
x45
x46
x47
x48
x49
x50
x51
x52
x53
x54
x55
x56
x57
x58
x59
x60
x61
x62
x63
x64
