problem_generation/data/GISP/train/er_n=65_m=1242_p=0.60_SET2_setparam=100.00_alpha=0.50_940.sol
objective value:                                 1273
x2                                                  1 	(obj:100)
x13                                                 1 	(obj:100)
x16                                                 1 	(obj:100)
x17                                                 1 	(obj:100)
x18                                                 1 	(obj:100)
x25                                                 1 	(obj:100)
x27                                                 1 	(obj:100)
x35                                                 1 	(obj:100)
x37                                                 1 	(obj:100)
x38                                                 1 	(obj:100)
x39                                                 1 	(obj:100)
x40                                                 1 	(obj:100)
x42                                                 1 	(obj:100)
y25_42                                              1 	(obj:-1)
y16_37                                              1 	(obj:-1)
y17_38                                              1 	(obj:-1)
y17_42                                              1 	(obj:-1)
y16_27                                              1 	(obj:-1)
y16_40                                              1 	(obj:-1)
y13_16                                              1 	(obj:-1)
y27_35                                              1 	(obj:-1)
y38_40                                              1 	(obj:-1)
y18_38                                              1 	(obj:-1)
y25_37                                              1 	(obj:-1)
y2_39                                               1 	(obj:-1)
y37_42                                              1 	(obj:-1)
y18_37                                              1 	(obj:-1)
y2_25                                               1 	(obj:-1)
y25_40                                              1 	(obj:-1)
y17_27                                              1 	(obj:-1)
y17_40                                              1 	(obj:-1)
y16_25                                              1 	(obj:-1)
y17_35                                              1 	(obj:-1)
y2_18                                               1 	(obj:-1)
y13_42                                              1 	(obj:-1)
y35_42                                              1 	(obj:-1)
y16_38                                              1 	(obj:-1)
y18_27                                              1 	(obj:-1)
y38_42                                              1 	(obj:-1)
y37_40                                              1 	(obj:-1)
